Problem:    
Rows:       10
Columns:    7
Non-zeros:  16
Status:     OPTIMAL
Objective:  2327529.6 (MAXimum)

   No.   Row name   St   Activity     Lower bound   Upper bound    Marginal
------ ------------ -- ------------- ------------- ------------- -------------
     1 r_0          B              0                    0.417524 
     2 r_1          NU     -0.417524                   -0.417524         < eps
     3 r_2          B       0.712148                     10178.2 
     4 r_3          NU      0.294624                    0.294624       7.9e+06 
     5 r_4          NS             0             0             =        100000 
     6 r_5          NS             0             0             =        100000 
     7 r_6          B       0.294624                       428.4 
     8 r_7          B       0.712148                        2282 
     9 r_8          NS             0             0             =        300000 
    10 r_9          NS             0             0             =        100000 

   No. Column name  St   Activity     Lower bound   Upper bound    Marginal
------ ------------ -- ------------- ------------- ------------- -------------
     1 r484_z1_d7501
                    B       0.294624             0               
     2 r485_z1_d19923
                    B              0             0               
     3 r484_z1_d20017
                    B              0             0               
     4 r484_volGoal B              0             0               
     5 r485_volGoal B              0             0               
     6 r485_z1_r484 B       0.712148             0               
     7 r484_s       NL             0             0                      -1e+07 

Karush-Kuhn-Tucker optimality conditions:

KKT.PE: max.abs.err = 7.60e-13 on row 3
        max.rel.err = 3.14e-13 on row 3
        High quality

KKT.PB: max.abs.err = 0.00e+00 on row 0
        max.rel.err = 0.00e+00 on row 0
        High quality

KKT.DE: max.abs.err = 0.00e+00 on column 0
        max.rel.err = 0.00e+00 on column 0
        High quality

KKT.DB: max.abs.err = 0.00e+00 on row 0
        max.rel.err = 0.00e+00 on row 0
        High quality

End of output
